WARNING: for repeatability, setting FPU to use double precision
============================[ Problem Statistics ]=============================
|                                                                             |
|  Number of variables:           729                                         |
|  Number of clauses:           96849                                         |
|  Parse time:                   0.02 s                                       |
|                                                                             |
============================[ Search Statistics ]==============================
| Conflicts |          ORIGINAL         |          LEARNT          | Progress |
|           |    Vars  Clauses Literals |    Limit  Clauses Lit/Cl |          |
===============================================================================
|       100 |     729    96849   253854 |    35511      100     35 |  0.000 % |
|       250 |     729    96849   253854 |    39062      250     25 |  0.012 % |
|       475 |     729    96849   253854 |    42968      475     22 |  0.012 % |
|       812 |     729    96849   253854 |    47265      812     21 |  0.012 % |
|      1318 |     729    96849   253854 |    51992     1318     23 |  0.012 % |
|      2077 |     729    96849   253854 |    57191     2077     22 |  0.013 % |
|      3216 |     729    96849   253854 |    62910     3216     24 |  0.013 % |
|      4924 |     729    96849   253854 |    69201     4924     23 |  0.014 % |
|      7486 |     729    96849   253854 |    76121     7486     24 |  0.013 % |
|     11330 |     729    96849   253854 |    83733    11330     25 |  0.013 % |
|     17096 |     729    96849   253854 |    92107    17096     26 |  0.013 % |
|     25745 |     729    96849   253854 |   101317    25745     26 |  0.000 % |
|     38719 |     729    96849   253854 |   111449    38719     27 |  0.013 % |
|     58180 |     729    96849   253854 |   122594    58180     27 |  0.012 % |
|     87372 |     729    96849   253854 |   134854    87372     28 |  0.013 % |
|    131161 |     728    96589   253180 |   148339   131160     28 |  0.149 % |
|    196845 |     728    96589   253180 |   163173    67141     29 |  0.150 % |
|    295371 |     728    96589   253180 |   179490    25106     27 |  0.150 % |
===============================================================================
restarts              : 1021
conflicts             : 430700         (13587 /sec)
decisions             : 818980         (0.00 % random) (25835 /sec)
propagations          : 51606263       (1627958 /sec)
conflict literals     : 12955026       (54.00 % deleted)
Memory used           : 80.00 MB
CPU time              : 31.7 s

SATISFIABLE
